5
150
433
40	24
1	5	4	9	6	5	11	4	9	3	9	2	
2	3	6	4	20	3	9	3	
3	2	20	3	20	2	
4	3	5	10	6	5	7	3	
5	1	20	4	
6	3	8	10	11	4	12	3	
7	3	5	7	12	5	10	4	
8	2	6	4	10	3	
9	4	9	4	23	3	10	3	13	2	
10	2	22	3	11	3	
11	1	9	3	
12	1	10	6	
13	5	5	10	5	7	8	3	8	3	7	2	
14	5	11	5	23	3	5	3	4	3	20	2	
15	5	6	11	8	5	5	4	8	3	21	2	
16	5	6	6	23	4	12	4	7	4	6	2	
17	2	6	6	4	4	
18	1	23	3	
19	2	7	10	19	4	
20	2	6	6	6	2	
21	1	4	4	
22	5	6	9	12	4	8	4	8	3	7	3	
23	2	8	5	6	2	
24	2	5	6	6	5	
25	3	7	12	5	9	6	8	
26	3	4	10	22	3	11	2	
27	1	19	3	
28	5	6	4	6	4	17	3	7	3	6	2	
29	2	7	6	12	3	
30	2	12	6	14	4	
31	4	21	3	9	3	6	3	7	2	
32	5	9	4	10	3	7	3	5	3	12	2	
33	3	11	6	6	4	8	3	
34	1	23	2	
35	4	7	11	19	4	10	4	7	4	
36	1	4	5	
37	1	5	6	
38	2	7	9	16	4	
39	3	14	4	5	4	11	2	
40	2	13	4	6	4	
41	2	7	4	17	3	
42	5	13	4	10	4	6	4	5	3	7	2	
43	2	5	10	9	3	
44	5	5	6	15	4	10	4	9	4	5	4	
45	2	10	4	23	3	
46	4	12	6	7	5	11	3	24	2	
47	3	7	5	16	4	11	3	
48	2	6	4	12	3	
49	3	5	12	5	10	13	3	
50	5	7	9	11	5	10	5	7	3	12	2	
51	3	8	3	11	2	6	2	
52	3	6	4	5	4	7	3	
53	2	4	10	18	4	
54	5	7	5	10	4	5	4	6	3	5	3	
55	3	8	10	6	6	5	2	
56	1	7	10	
57	1	5	3	
58	1	7	10	
59	5	12	4	15	3	8	3	4	3	13	2	
60	5	8	10	8	3	5	3	17	2	7	2	
61	2	6	10	20	3	
62	1	11	4	
63	5	6	11	5	10	8	6	11	5	8	4	
64	3	8	3	4	3	7	2	
65	5	7	8	6	8	14	2	13	2	6	2	
66	2	4	5	13	4	
67	4	5	11	4	6	10	5	9	5	
68	1	4	12	
69	4	6	5	22	3	15	3	11	2	
70	1	21	3	
71	2	7	5	10	4	
72	5	7	7	21	3	16	3	4	3	4	2	
73	3	8	11	10	6	4	4	
74	3	11	6	7	3	5	3	
75	5	7	5	17	4	11	4	4	3	23	2	
76	4	9	5	21	3	20	3	21	2	
77	3	16	3	15	3	15	3	
78	3	5	4	21	3	14	2	
79	5	6	8	16	4	12	4	10	4	21	3	
80	3	4	6	11	3	10	3	
81	2	10	4	4	2	
82	1	7	4	
83	1	6	6	
84	2	12	5	8	4	
85	5	16	3	11	3	9	3	7	3	6	2	
86	4	10	5	21	4	5	3	22	2	
87	5	6	6	20	4	8	4	6	4	9	3	
88	1	11	6	
89	2	7	3	5	2	
90	3	12	5	11	5	20	3	
91	3	10	5	7	4	11	3	
92	1	6	5	
93	4	7	9	6	5	14	2	5	2	
94	2	6	10	12	4	
95	5	10	5	9	4	11	3	11	2	9	2	
96	3	8	4	8	3	7	3	
97	3	5	12	6	5	11	2	
98	5	6	10	7	4	6	4	6	3	23	2	
99	5	6	8	6	5	15	4	6	4	19	2	
100	4	6	9	7	5	12	4	7	2	
101	2	5	10	10	5	
102	1	4	11	
103	3	12	4	12	4	8	4	
104	1	9	4	
105	3	7	6	18	4	19	3	
106	3	8	5	6	5	4	5	
107	2	4	8	9	3	
108	1	5	3	
109	5	5	11	8	10	11	4	12	3	8	3	
110	4	5	8	7	4	22	3	5	3	
111	1	19	3	
112	1	14	4	
113	5	4	11	7	8	14	3	12	2	6	2	
114	2	9	5	19	3	
115	3	6	5	6	5	5	4	
116	2	7	5	11	3	
117	2	9	4	14	3	
118	4	5	10	4	6	4	3	5	2	
119	3	6	10	6	6	5	5	
120	3	9	4	13	2	4	2	
121	5	5	7	10	4	12	3	4	3	22	2	
122	4	7	6	12	3	7	3	7	3	
123	1	7	5	
124	1	6	4	
125	4	8	10	10	4	7	4	9	2	
126	1	5	4	
127	3	6	9	16	4	5	3	
128	2	6	6	8	5	
129	1	4	5	
130	3	4	10	24	3	11	3	
131	2	6	6	19	3	
132	2	5	6	10	4	
133	3	8	3	6	3	7	2	
134	1	5	10	
135	2	5	10	9	3	
136	2	12	3	6	3	
137	1	10	4	
138	4	8	5	8	5	5	4	17	2	
139	4	9	4	12	3	8	3	6	3	
140	4	8	6	5	4	16	3	10	2	
141	3	6	12	5	10	10	5	
142	2	6	6	12	5	
143	3	16	3	12	3	8	3	
144	4	12	4	7	3	21	2	4	2	
145	4	8	5	23	4	20	3	12	3	
146	4	5	10	5	9	4	3	18	2	
147	5	9	4	14	3	11	3	22	2	9	2	
148	4	16	4	22	3	13	3	10	3	
149	3	8	12	8	6	6	4	
150	4	12	6	8	5	7	5	12	2	
